c random assignment satisfied 127/430 clauses
o 303
c flipped 0/100 variables (k=0)
c solution improved by 113 clauses
o 190
c flipped 0/100 variables (k=0)
c solution improved by 7 clauses
o 183
c flipped 0/100 variables (k=0)
c solution improved by 1 clause
o 182
c flipped 0/100 variables (k=0)
c solution improved by 34 clauses
o 148
c flipped 0/100 variables (k=0)
c solution improved by 30 clauses
o 118
c flipped 0/100 variables (k=0)
c solution improved by 2 clauses
o 116
c flipped 0/100 variables (k=0)
c solution improved by 8 clauses
o 108
c flipped 0/100 variables (k=0)
c solution improved by 16 clauses
o 92
c flipped 0/100 variables (k=0)
c solution improved by 7 clauses
o 85
c flipped 0/100 variables (k=0)
c solution improved by 1 clause
o 84
c flipped 0/100 variables (k=0)
c solution improved by 1 clause
o 83
c flipped 0/100 variables (k=0)
c solution improved by 1 clause
o 82
c flipped 0/100 variables (k=0)
c solution improved by 8 clauses
o 74
c flipped 0/100 variables (k=0)
c solution improved by 1 clause
o 73
c flipped 0/100 variables (k=0)
c solution improved by 1 clause
o 72
c flipped 0/100 variables (k=0)
c solution improved by 15 clauses
o 57
c flipped 0/100 variables (k=0)
c solution improved by 2 clauses
o 55
c flipped 0/100 variables (k=0)
c solution improved by 1 clause
o 54
c flipped 0/100 variables (k=0)
c solution improved by 1 clause
o 53
c flipped 0/100 variables (k=0)
c solution improved by 8 clauses
o 45
c flipped 0/100 variables (k=0)
c solution improved by 1 clause
o 44
c flipped 0/100 variables (k=0)
c solution improved by 1 clause
o 43
c flipped 0/100 variables (k=0)
c solution improved by 1 clause
o 42
c flipped 0/100 variables (k=0)
c solution improved by 1 clause
o 41
v 0100001100111110001000011100010000110101000111110011110100001101111011000011110111001101000000111111
c stuck at 389/430 clauses with k=0
s UNKNOWN
